# Solution for model MIP
# Objective value = -7.5136819082303202e+02
team_t0_s0 0
team_t1_s0 0
team_t2_s0 0
team_t3_s0 0
team_t4_s0 1
team_t5_s0 1
team_t6_s0 0
team_t7_s0 0
team_t8_s0 0
team_t9_s0 0
team_t10_s0 0
team_t0_s1 1
team_t1_s1 0
team_t2_s1 0
team_t3_s1 0
team_t4_s1 0
team_t5_s1 0
team_t6_s1 0
team_t7_s1 0
team_t8_s1 1
team_t9_s1 0
team_t10_s1 0
team_t0_s2 0
team_t1_s2 0
team_t2_s2 0
team_t3_s2 0
team_t4_s2 0
team_t5_s2 1
team_t6_s2 0
team_t7_s2 1
team_t8_s2 0
team_t9_s2 0
team_t10_s2 0
theta -7.4206541247765665e+02
z_w0_k0_m0 9.8011525883324191e-01
z_w0_k0_m1 5.1829037836350345e-01
z_w0_k0_m2 9.8937903680226913e-01
z_w0_k0_m3 3.7654775014333230e-01
z_w0_k0_m4 6.5801186355186481e-01
z_w0_k1_m0 6.0126549117170969e-01
z_w0_k1_m1 5.9574126472880651e-01
z_w0_k1_m2 5.9559313862684093e-01
z_w0_k1_m3 5.9383392858365791e-01
z_w0_k1_m4 5.9576946963076149e-01
z_w0_k2_m0 6.1284922550818899e-01
z_w0_k2_m1 7.2026659042257812e-01
z_w0_k2_m2 4.1729531512674550e-01
z_w0_k2_m3 5.8786618650065070e-01
z_w0_k2_m4 5.1436023892376626e-01
z_w0_k3_m0 9.8011525883324191e-01
z_w0_k3_m1 5.1829037836350345e-01
z_w0_k3_m2 9.8937903680226913e-01
z_w0_k3_m3 3.7654775014333230e-01
z_w0_k3_m4 6.5801186355186481e-01
z_w1_k0_m0 9.8011525883324191e-01
z_w1_k0_m1 5.1829037836350345e-01
z_w1_k0_m2 9.8937903680226913e-01
z_w1_k0_m3 3.7654775014333230e-01
z_w1_k0_m4 6.5801186355186481e-01
z_w1_k1_m0 9.8011525883324191e-01
z_w1_k1_m1 5.1829037836350345e-01
z_w1_k1_m2 9.8937903680226913e-01
z_w1_k1_m3 3.7654775014333230e-01
z_w1_k1_m4 6.5801186355186481e-01
z_w1_k2_m0 5.8713454049287972e-01
z_w1_k2_m1 7.3120528585991706e-01
z_w1_k2_m2 3.5477523885046686e-01
z_w1_k2_m3 6.1938239131499329e-01
z_w1_k2_m4 4.9532153056510903e-01
z_w1_k3_m0 6.5503718752573770e-01
z_w1_k3_m1 5.7242468000344737e-01
z_w1_k3_m2 6.1689493658429062e-01
z_w1_k3_m3 5.5032154317971804e-01
z_w1_k3_m4 6.5536947889708408e-01
z_w2_k0_m0 6.1952370711936422e-01
z_w2_k0_m1 7.2677499128607126e-01
z_w2_k0_m2 5.5255249106582094e-01
z_w2_k0_m3 5.5301697240604875e-01
z_w2_k0_m4 4.8911431336713340e-01
z_w2_k1_m0 9.8011525883324191e-01
z_w2_k1_m1 5.1829037836350345e-01
z_w2_k1_m2 9.8937903680226913e-01
z_w2_k1_m3 3.7654775014333230e-01
z_w2_k1_m4 6.5801186355186481e-01
z_w2_k2_m0 6.4252106433519374e-01
z_w2_k2_m1 7.0782838361973199e-01
z_w2_k2_m2 4.5499349164177394e-01
z_w2_k2_m3 5.5846294083488424e-01
z_w2_k2_m4 5.4224111868853153e-01
z_w2_k3_m0 6.5642786788024277e-01
z_w2_k3_m1 5.5737982404608255e-01
z_w2_k3_m2 6.3488398602234808e-01
z_w2_k3_m3 5.4941694344025516e-01
z_w2_k3_m4 6.6793929669803442e-01
z_w3_k0_m0 5.8003370410283939e-01
z_w3_k0_m1 7.3420232460865875e-01
z_w3_k0_m2 3.4192674490286334e-01
z_w3_k0_m3 6.2719257727398159e-01
z_w3_k0_m4 4.8930619875441383e-01
z_w3_k1_m0 9.8011525883324191e-01
z_w3_k1_m1 5.1829037836350345e-01
z_w3_k1_m2 9.8937903680226913e-01
z_w3_k1_m3 3.7654775014333230e-01
z_w3_k1_m4 6.5801186355186481e-01
z_w3_k2_m0 9.8011525883324191e-01
z_w3_k2_m1 5.1829037836350345e-01
z_w3_k2_m2 9.8937903680226913e-01
z_w3_k2_m3 3.7654775014333230e-01
z_w3_k2_m4 6.5801186355186481e-01
z_w3_k3_m0 6.4907330831314947e-01
z_w3_k3_m1 6.3694396612830095e-01
z_w3_k3_m2 5.3974958995569833e-01
z_w3_k3_m3 5.5420088437010706e-01
z_w3_k3_m4 6.0146429871223961e-01
z_w4_k0_m0 5.2469775712014455e-01
z_w4_k0_m1 6.1297894288760368e-01
z_w4_k0_m2 3.9652706046464470e-01
z_w4_k0_m3 6.9430644728483870e-01
z_w4_k0_m4 5.5634676278286732e-01
z_w4_k1_m0 9.8011525883324191e-01
z_w4_k1_m1 5.1829037836350345e-01
z_w4_k1_m2 9.8937903680226913e-01
z_w4_k1_m3 3.7654775014333230e-01
z_w4_k1_m4 6.5801186355186481e-01
z_w4_k2_m0 9.8011525883324191e-01
z_w4_k2_m1 5.1829037836350345e-01
z_w4_k2_m2 9.8937903680226913e-01
z_w4_k2_m3 3.7654775014333230e-01
z_w4_k2_m4 6.5801186355186481e-01
z_w4_k3_m0 9.8011525883324191e-01
z_w4_k3_m1 5.1829037836350345e-01
z_w4_k3_m2 9.8937903680226913e-01
z_w4_k3_m3 3.7654775014333230e-01
z_w4_k3_m4 6.5801186355186481e-01
pi_w0_t0_k0 1
pi_w0_t0_k1 2.2619047619047616e-01
pi_w0_t0_k2 2.6419753086419751e-01
pi_w0_t0_k3 1
pi_w0_t1_k0 0
pi_w0_t1_k1 0
pi_w0_t1_k2 0
pi_w0_t1_k3 0
pi_w0_t2_k0 0
pi_w0_t2_k1 0
pi_w0_t2_k2 0
pi_w0_t2_k3 0
pi_w0_t3_k0 0
pi_w0_t3_k1 0
pi_w0_t3_k2 0
pi_w0_t3_k3 0
pi_w0_t4_k0 0
pi_w0_t4_k1 7.1428571428571425e-02
pi_w0_t4_k2 1.4814814814814815e-02
pi_w0_t4_k3 0
pi_w0_t5_k0 0
pi_w0_t5_k1 2.8571428571428570e-01
pi_w0_t5_k2 6.4938271604938269e-01
pi_w0_t5_k3 0
pi_w0_t6_k0 0
pi_w0_t6_k1 0
pi_w0_t6_k2 0
pi_w0_t6_k3 0
pi_w0_t7_k0 0
pi_w0_t7_k1 3.0952380952380953e-01
pi_w0_t7_k2 2.4691358024691358e-03
pi_w0_t7_k3 0
pi_w0_t8_k0 0
pi_w0_t8_k1 1.0714285714285714e-01
pi_w0_t8_k2 6.9135802469135796e-02
pi_w0_t8_k3 0
pi_w0_t9_k0 0
pi_w0_t9_k1 0
pi_w0_t9_k2 0
pi_w0_t9_k3 0
pi_w0_t10_k0 0
pi_w0_t10_k1 0
pi_w0_t10_k2 0
pi_w0_t10_k3 0
pi_w1_t0_k0 1
pi_w1_t0_k1 1
pi_w1_t0_k2 1.9318181818181818e-01
pi_w1_t0_k3 3.3333333333333331e-01
pi_w1_t1_k0 0
pi_w1_t1_k1 0
pi_w1_t1_k2 0
pi_w1_t1_k3 0
pi_w1_t2_k0 0
pi_w1_t2_k1 0
pi_w1_t2_k2 0
pi_w1_t2_k3 0
pi_w1_t3_k0 0
pi_w1_t3_k1 0
pi_w1_t3_k2 0
pi_w1_t3_k3 0
pi_w1_t4_k0 0
pi_w1_t4_k1 0
pi_w1_t4_k2 0
pi_w1_t4_k3 0
pi_w1_t5_k0 0
pi_w1_t5_k1 0
pi_w1_t5_k2 6.6666666666666663e-01
pi_w1_t5_k3 3.6666666666666664e-01
pi_w1_t6_k0 0
pi_w1_t6_k1 0
pi_w1_t6_k2 0
pi_w1_t6_k3 0
pi_w1_t7_k0 0
pi_w1_t7_k1 0
pi_w1_t7_k2 0
pi_w1_t7_k3 0.3
pi_w1_t8_k0 0
pi_w1_t8_k1 0
pi_w1_t8_k2 1.4015151515151514e-01
pi_w1_t8_k3 0
pi_w1_t9_k0 0
pi_w1_t9_k1 0
pi_w1_t9_k2 0
pi_w1_t9_k3 0
pi_w1_t10_k0 0
pi_w1_t10_k1 0
pi_w1_t10_k2 0
pi_w1_t10_k3 0
pi_w2_t0_k0 3.3333333333333331e-01
pi_w2_t0_k1 1
pi_w2_t0_k2 3.3333333333333331e-01
pi_w2_t0_k3 3.3333333333333331e-01
pi_w2_t1_k0 0
pi_w2_t1_k1 0
pi_w2_t1_k2 0
pi_w2_t1_k3 0
pi_w2_t2_k0 0
pi_w2_t2_k1 0
pi_w2_t2_k2 0
pi_w2_t2_k3 0
pi_w2_t3_k0 0
pi_w2_t3_k1 0
pi_w2_t3_k2 0
pi_w2_t3_k3 0
pi_w2_t4_k0 1.3888888888888890e-01
pi_w2_t4_k1 0
pi_w2_t4_k2 0
pi_w2_t4_k3 0
pi_w2_t5_k0 5.2777777777777779e-01
pi_w2_t5_k1 0
pi_w2_t5_k2 6.6666666666666663e-01
pi_w2_t5_k3 3.3333333333333331e-01
pi_w2_t6_k0 0
pi_w2_t6_k1 0
pi_w2_t6_k2 0
pi_w2_t6_k3 0
pi_w2_t7_k0 0
pi_w2_t7_k1 0
pi_w2_t7_k2 0
pi_w2_t7_k3 3.3333333333333331e-01
pi_w2_t8_k0 0
pi_w2_t8_k1 0
pi_w2_t8_k2 0
pi_w2_t8_k3 0
pi_w2_t9_k0 0
pi_w2_t9_k1 0
pi_w2_t9_k2 0
pi_w2_t9_k3 0
pi_w2_t10_k0 0
pi_w2_t10_k1 0
pi_w2_t10_k2 0
pi_w2_t10_k3 0
pi_w3_t0_k0 1.7521367521367520e-01
pi_w3_t0_k1 1
pi_w3_t0_k2 1
pi_w3_t0_k3 3.3333333333333331e-01
pi_w3_t1_k0 0
pi_w3_t1_k1 0
pi_w3_t1_k2 0
pi_w3_t1_k3 0
pi_w3_t2_k0 0
pi_w3_t2_k1 0
pi_w3_t2_k2 0
pi_w3_t2_k3 0
pi_w3_t3_k0 0
pi_w3_t3_k1 0
pi_w3_t3_k2 0
pi_w3_t3_k3 0
pi_w3_t4_k0 0
pi_w3_t4_k1 0
pi_w3_t4_k2 0
pi_w3_t4_k3 0
pi_w3_t5_k0 6.6666666666666663e-01
pi_w3_t5_k1 0
pi_w3_t5_k2 0
pi_w3_t5_k3 5.0961538461538458e-01
pi_w3_t6_k0 0
pi_w3_t6_k1 0
pi_w3_t6_k2 0
pi_w3_t6_k3 0
pi_w3_t7_k0 0
pi_w3_t7_k1 0
pi_w3_t7_k2 0
pi_w3_t7_k3 1.5705128205128205e-01
pi_w3_t8_k0 1.5811965811965811e-01
pi_w3_t8_k1 0
pi_w3_t8_k2 0
pi_w3_t8_k3 0
pi_w3_t9_k0 0
pi_w3_t9_k1 0
pi_w3_t9_k2 0
pi_w3_t9_k3 0
pi_w3_t10_k0 0
pi_w3_t10_k1 0
pi_w3_t10_k2 0
pi_w3_t10_k3 0
pi_w4_t0_k0 0
pi_w4_t0_k1 1
pi_w4_t0_k2 1
pi_w4_t0_k3 1
pi_w4_t1_k0 0
pi_w4_t1_k1 0
pi_w4_t1_k2 0
pi_w4_t1_k3 0
pi_w4_t2_k0 0
pi_w4_t2_k1 0
pi_w4_t2_k2 0
pi_w4_t2_k3 0
pi_w4_t3_k0 0
pi_w4_t3_k1 0
pi_w4_t3_k2 0
pi_w4_t3_k3 0
pi_w4_t4_k0 0
pi_w4_t4_k1 0
pi_w4_t4_k2 0
pi_w4_t4_k3 0
pi_w4_t5_k0 3.3333333333333331e-01
pi_w4_t5_k1 0
pi_w4_t5_k2 0
pi_w4_t5_k3 0
pi_w4_t6_k0 0
pi_w4_t6_k1 0
pi_w4_t6_k2 0
pi_w4_t6_k3 0
pi_w4_t7_k0 3.3333333333333331e-01
pi_w4_t7_k1 0
pi_w4_t7_k2 0
pi_w4_t7_k3 0
pi_w4_t8_k0 3.3333333333333331e-01
pi_w4_t8_k1 0
pi_w4_t8_k2 0
pi_w4_t8_k3 0
pi_w4_t9_k0 0
pi_w4_t9_k1 0
pi_w4_t9_k2 0
pi_w4_t9_k3 0
pi_w4_t10_k0 0
pi_w4_t10_k1 0
pi_w4_t10_k2 0
pi_w4_t10_k3 0
n_w0_t0_k0 0
n_w0_t0_k1 6.3333333333333321e+00
n_w0_t0_k2 3.5666666666666664e+01
n_w0_t0_k3 0
n_w0_t1_k0 0
n_w0_t1_k1 0
n_w0_t1_k2 0
n_w0_t1_k3 0
n_w0_t2_k0 0
n_w0_t2_k1 0
n_w0_t2_k2 0
n_w0_t2_k3 0
n_w0_t3_k0 0
n_w0_t3_k1 0
n_w0_t3_k2 0
n_w0_t3_k3 0
n_w0_t4_k0 0
n_w0_t4_k1 2
n_w0_t4_k2 2
n_w0_t4_k3 0
n_w0_t5_k0 0
n_w0_t5_k1 8
n_w0_t5_k2 8.7666666666666657e+01
n_w0_t5_k3 0
n_w0_t6_k0 0
n_w0_t6_k1 0
n_w0_t6_k2 0
n_w0_t6_k3 0
n_w0_t7_k0 0
n_w0_t7_k1 8.6666666666666679e+00
n_w0_t7_k2 3.3333333333333331e-01
n_w0_t7_k3 0
n_w0_t8_k0 0
n_w0_t8_k1 3
n_w0_t8_k2 9.3333333333333321e+00
n_w0_t8_k3 0
n_w0_t9_k0 0
n_w0_t9_k1 0
n_w0_t9_k2 0
n_w0_t9_k3 0
n_w0_t10_k0 0
n_w0_t10_k1 0
n_w0_t10_k2 0
n_w0_t10_k3 0
n_w1_t0_k0 0
n_w1_t0_k1 0
n_w1_t0_k2 17
n_w1_t0_k3 10
n_w1_t1_k0 0
n_w1_t1_k1 0
n_w1_t1_k2 0
n_w1_t1_k3 0
n_w1_t2_k0 0
n_w1_t2_k1 0
n_w1_t2_k2 0
n_w1_t2_k3 0
n_w1_t3_k0 0
n_w1_t3_k1 0
n_w1_t3_k2 0
n_w1_t3_k3 0
n_w1_t4_k0 0
n_w1_t4_k1 0
n_w1_t4_k2 0
n_w1_t4_k3 0
n_w1_t5_k0 0
n_w1_t5_k1 0
n_w1_t5_k2 5.8666666666666664e+01
n_w1_t5_k3 11
n_w1_t6_k0 0
n_w1_t6_k1 0
n_w1_t6_k2 0
n_w1_t6_k3 0
n_w1_t7_k0 0
n_w1_t7_k1 0
n_w1_t7_k2 0
n_w1_t7_k3 9
n_w1_t8_k0 0
n_w1_t8_k1 0
n_w1_t8_k2 1.2333333333333332e+01
n_w1_t8_k3 0
n_w1_t9_k0 0
n_w1_t9_k1 0
n_w1_t9_k2 0
n_w1_t9_k3 0
n_w1_t10_k0 0
n_w1_t10_k1 0
n_w1_t10_k2 0
n_w1_t10_k3 0
n_w2_t0_k0 8
n_w2_t0_k1 0
n_w2_t0_k2 4
n_w2_t0_k3 4.3333333333333330e+00
n_w2_t1_k0 0
n_w2_t1_k1 0
n_w2_t1_k2 0
n_w2_t1_k3 0
n_w2_t2_k0 0
n_w2_t2_k1 0
n_w2_t2_k2 0
n_w2_t2_k3 0
n_w2_t3_k0 0
n_w2_t3_k1 0
n_w2_t3_k2 0
n_w2_t3_k3 0
n_w2_t4_k0 3.3333333333333335e+00
n_w2_t4_k1 0
n_w2_t4_k2 0
n_w2_t4_k3 0
n_w2_t5_k0 1.2666666666666668e+01
n_w2_t5_k1 0
n_w2_t5_k2 8
n_w2_t5_k3 4.3333333333333330e+00
n_w2_t6_k0 0
n_w2_t6_k1 0
n_w2_t6_k2 0
n_w2_t6_k3 0
n_w2_t7_k0 0
n_w2_t7_k1 0
n_w2_t7_k2 0
n_w2_t7_k3 4.3333333333333330e+00
n_w2_t8_k0 0
n_w2_t8_k1 0
n_w2_t8_k2 0
n_w2_t8_k3 0
n_w2_t9_k0 0
n_w2_t9_k1 0
n_w2_t9_k2 0
n_w2_t9_k3 0
n_w2_t10_k0 0
n_w2_t10_k1 0
n_w2_t10_k2 0
n_w2_t10_k3 0
n_w3_t0_k0 1.3666666666666666e+01
n_w3_t0_k1 0
n_w3_t0_k2 0
n_w3_t0_k3 3.4666666666666664e+01
n_w3_t1_k0 0
n_w3_t1_k1 0
n_w3_t1_k2 0
n_w3_t1_k3 0
n_w3_t2_k0 0
n_w3_t2_k1 0
n_w3_t2_k2 0
n_w3_t2_k3 0
n_w3_t3_k0 0
n_w3_t3_k1 0
n_w3_t3_k2 0
n_w3_t3_k3 0
n_w3_t4_k0 0
n_w3_t4_k1 0
n_w3_t4_k2 0
n_w3_t4_k3 0
n_w3_t5_k0 52
n_w3_t5_k1 0
n_w3_t5_k2 0
n_w3_t5_k3 53
n_w3_t6_k0 0
n_w3_t6_k1 0
n_w3_t6_k2 0
n_w3_t6_k3 0
n_w3_t7_k0 0
n_w3_t7_k1 0
n_w3_t7_k2 0
n_w3_t7_k3 1.6333333333333332e+01
n_w3_t8_k0 1.2333333333333332e+01
n_w3_t8_k1 0
n_w3_t8_k2 0
n_w3_t8_k3 0
n_w3_t9_k0 0
n_w3_t9_k1 0
n_w3_t9_k2 0
n_w3_t9_k3 0
n_w3_t10_k0 0
n_w3_t10_k1 0
n_w3_t10_k2 0
n_w3_t10_k3 0
n_w4_t0_k0 0
n_w4_t0_k1 0
n_w4_t0_k2 0
n_w4_t0_k3 0
n_w4_t1_k0 0
n_w4_t1_k1 0
n_w4_t1_k2 0
n_w4_t1_k3 0
n_w4_t2_k0 0
n_w4_t2_k1 0
n_w4_t2_k2 0
n_w4_t2_k3 0
n_w4_t3_k0 0
n_w4_t3_k1 0
n_w4_t3_k2 0
n_w4_t3_k3 0
n_w4_t4_k0 0
n_w4_t4_k1 0
n_w4_t4_k2 0
n_w4_t4_k3 0
n_w4_t5_k0 4.3333333333333330e+00
n_w4_t5_k1 0
n_w4_t5_k2 0
n_w4_t5_k3 0
n_w4_t6_k0 0
n_w4_t6_k1 0
n_w4_t6_k2 0
n_w4_t6_k3 0
n_w4_t7_k0 4.3333333333333330e+00
n_w4_t7_k1 0
n_w4_t7_k2 0
n_w4_t7_k3 0
n_w4_t8_k0 4.3333333333333330e+00
n_w4_t8_k1 0
n_w4_t8_k2 0
n_w4_t8_k3 0
n_w4_t9_k0 0
n_w4_t9_k1 0
n_w4_t9_k2 0
n_w4_t9_k3 0
n_w4_t10_k0 0
n_w4_t10_k1 0
n_w4_t10_k2 0
n_w4_t10_k3 0
ni_s0_w0_t0_k0 0
ni_s0_w0_t0_k1 0
ni_s0_w0_t0_k2 0
ni_s0_w0_t0_k3 0
ni_s0_w0_t1_k0 0
ni_s0_w0_t1_k1 0
ni_s0_w0_t1_k2 0
ni_s0_w0_t1_k3 0
ni_s0_w0_t2_k0 0
ni_s0_w0_t2_k1 0
ni_s0_w0_t2_k2 0
ni_s0_w0_t2_k3 0
ni_s0_w0_t3_k0 0
ni_s0_w0_t3_k1 0
ni_s0_w0_t3_k2 0
ni_s0_w0_t3_k3 0
ni_s0_w0_t4_k0 0
ni_s0_w0_t4_k1 6
ni_s0_w0_t4_k2 6
ni_s0_w0_t4_k3 0
ni_s0_w0_t5_k0 0
ni_s0_w0_t5_k1 22
ni_s0_w0_t5_k2 129
ni_s0_w0_t5_k3 0
ni_s0_w0_t6_k0 0
ni_s0_w0_t6_k1 0
ni_s0_w0_t6_k2 0
ni_s0_w0_t6_k3 0
ni_s0_w0_t7_k0 0
ni_s0_w0_t7_k1 0
ni_s0_w0_t7_k2 0
ni_s0_w0_t7_k3 0
ni_s0_w0_t8_k0 0
ni_s0_w0_t8_k1 0
ni_s0_w0_t8_k2 0
ni_s0_w0_t8_k3 0
ni_s0_w0_t9_k0 0
ni_s0_w0_t9_k1 0
ni_s0_w0_t9_k2 0
ni_s0_w0_t9_k3 0
ni_s0_w0_t10_k0 0
ni_s0_w0_t10_k1 0
ni_s0_w0_t10_k2 0
ni_s0_w0_t10_k3 0
ni_s0_w1_t0_k0 0
ni_s0_w1_t0_k1 0
ni_s0_w1_t0_k2 0
ni_s0_w1_t0_k3 0
ni_s0_w1_t1_k0 0
ni_s0_w1_t1_k1 0
ni_s0_w1_t1_k2 0
ni_s0_w1_t1_k3 0
ni_s0_w1_t2_k0 0
ni_s0_w1_t2_k1 0
ni_s0_w1_t2_k2 0
ni_s0_w1_t2_k3 0
ni_s0_w1_t3_k0 0
ni_s0_w1_t3_k1 0
ni_s0_w1_t3_k2 0
ni_s0_w1_t3_k3 0
ni_s0_w1_t4_k0 0
ni_s0_w1_t4_k1 0
ni_s0_w1_t4_k2 0
ni_s0_w1_t4_k3 0
ni_s0_w1_t5_k0 0
ni_s0_w1_t5_k1 0
ni_s0_w1_t5_k2 88
ni_s0_w1_t5_k3 30
ni_s0_w1_t6_k0 0
ni_s0_w1_t6_k1 0
ni_s0_w1_t6_k2 0
ni_s0_w1_t6_k3 0
ni_s0_w1_t7_k0 0
ni_s0_w1_t7_k1 0
ni_s0_w1_t7_k2 0
ni_s0_w1_t7_k3 0
ni_s0_w1_t8_k0 0
ni_s0_w1_t8_k1 0
ni_s0_w1_t8_k2 0
ni_s0_w1_t8_k3 0
ni_s0_w1_t9_k0 0
ni_s0_w1_t9_k1 0
ni_s0_w1_t9_k2 0
ni_s0_w1_t9_k3 0
ni_s0_w1_t10_k0 0
ni_s0_w1_t10_k1 0
ni_s0_w1_t10_k2 0
ni_s0_w1_t10_k3 0
ni_s0_w2_t0_k0 0
ni_s0_w2_t0_k1 0
ni_s0_w2_t0_k2 0
ni_s0_w2_t0_k3 0
ni_s0_w2_t1_k0 0
ni_s0_w2_t1_k1 0
ni_s0_w2_t1_k2 0
ni_s0_w2_t1_k3 0
ni_s0_w2_t2_k0 0
ni_s0_w2_t2_k1 0
ni_s0_w2_t2_k2 0
ni_s0_w2_t2_k3 0
ni_s0_w2_t3_k0 0
ni_s0_w2_t3_k1 0
ni_s0_w2_t3_k2 0
ni_s0_w2_t3_k3 0
ni_s0_w2_t4_k0 10
ni_s0_w2_t4_k1 0
ni_s0_w2_t4_k2 0
ni_s0_w2_t4_k3 0
ni_s0_w2_t5_k0 14
ni_s0_w2_t5_k1 0
ni_s0_w2_t5_k2 12
ni_s0_w2_t5_k3 13
ni_s0_w2_t6_k0 0
ni_s0_w2_t6_k1 0
ni_s0_w2_t6_k2 0
ni_s0_w2_t6_k3 0
ni_s0_w2_t7_k0 0
ni_s0_w2_t7_k1 0
ni_s0_w2_t7_k2 0
ni_s0_w2_t7_k3 0
ni_s0_w2_t8_k0 0
ni_s0_w2_t8_k1 0
ni_s0_w2_t8_k2 0
ni_s0_w2_t8_k3 0
ni_s0_w2_t9_k0 0
ni_s0_w2_t9_k1 0
ni_s0_w2_t9_k2 0
ni_s0_w2_t9_k3 0
ni_s0_w2_t10_k0 0
ni_s0_w2_t10_k1 0
ni_s0_w2_t10_k2 0
ni_s0_w2_t10_k3 0
ni_s0_w3_t0_k0 0
ni_s0_w3_t0_k1 0
ni_s0_w3_t0_k2 0
ni_s0_w3_t0_k3 0
ni_s0_w3_t1_k0 0
ni_s0_w3_t1_k1 0
ni_s0_w3_t1_k2 0
ni_s0_w3_t1_k3 0
ni_s0_w3_t2_k0 0
ni_s0_w3_t2_k1 0
ni_s0_w3_t2_k2 0
ni_s0_w3_t2_k3 0
ni_s0_w3_t3_k0 0
ni_s0_w3_t3_k1 0
ni_s0_w3_t3_k2 0
ni_s0_w3_t3_k3 0
ni_s0_w3_t4_k0 0
ni_s0_w3_t4_k1 0
ni_s0_w3_t4_k2 0
ni_s0_w3_t4_k3 0
ni_s0_w3_t5_k0 78
ni_s0_w3_t5_k1 0
ni_s0_w3_t5_k2 0
ni_s0_w3_t5_k3 104
ni_s0_w3_t6_k0 0
ni_s0_w3_t6_k1 0
ni_s0_w3_t6_k2 0
ni_s0_w3_t6_k3 0
ni_s0_w3_t7_k0 0
ni_s0_w3_t7_k1 0
ni_s0_w3_t7_k2 0
ni_s0_w3_t7_k3 0
ni_s0_w3_t8_k0 0
ni_s0_w3_t8_k1 0
ni_s0_w3_t8_k2 0
ni_s0_w3_t8_k3 0
ni_s0_w3_t9_k0 0
ni_s0_w3_t9_k1 0
ni_s0_w3_t9_k2 0
ni_s0_w3_t9_k3 0
ni_s0_w3_t10_k0 0
ni_s0_w3_t10_k1 0
ni_s0_w3_t10_k2 0
ni_s0_w3_t10_k3 0
ni_s0_w4_t0_k0 0
ni_s0_w4_t0_k1 0
ni_s0_w4_t0_k2 0
ni_s0_w4_t0_k3 0
ni_s0_w4_t1_k0 0
ni_s0_w4_t1_k1 0
ni_s0_w4_t1_k2 0
ni_s0_w4_t1_k3 0
ni_s0_w4_t2_k0 0
ni_s0_w4_t2_k1 0
ni_s0_w4_t2_k2 0
ni_s0_w4_t2_k3 0
ni_s0_w4_t3_k0 0
ni_s0_w4_t3_k1 0
ni_s0_w4_t3_k2 0
ni_s0_w4_t3_k3 0
ni_s0_w4_t4_k0 0
ni_s0_w4_t4_k1 0
ni_s0_w4_t4_k2 0
ni_s0_w4_t4_k3 0
ni_s0_w4_t5_k0 13
ni_s0_w4_t5_k1 0
ni_s0_w4_t5_k2 0
ni_s0_w4_t5_k3 0
ni_s0_w4_t6_k0 0
ni_s0_w4_t6_k1 0
ni_s0_w4_t6_k2 0
ni_s0_w4_t6_k3 0
ni_s0_w4_t7_k0 0
ni_s0_w4_t7_k1 0
ni_s0_w4_t7_k2 0
ni_s0_w4_t7_k3 0
ni_s0_w4_t8_k0 0
ni_s0_w4_t8_k1 0
ni_s0_w4_t8_k2 0
ni_s0_w4_t8_k3 0
ni_s0_w4_t9_k0 0
ni_s0_w4_t9_k1 0
ni_s0_w4_t9_k2 0
ni_s0_w4_t9_k3 0
ni_s0_w4_t10_k0 0
ni_s0_w4_t10_k1 0
ni_s0_w4_t10_k2 0
ni_s0_w4_t10_k3 0
ni_s1_w0_t0_k0 0
ni_s1_w0_t0_k1 19
ni_s1_w0_t0_k2 107
ni_s1_w0_t0_k3 0
ni_s1_w0_t1_k0 0
ni_s1_w0_t1_k1 0
ni_s1_w0_t1_k2 0
ni_s1_w0_t1_k3 0
ni_s1_w0_t2_k0 0
ni_s1_w0_t2_k1 0
ni_s1_w0_t2_k2 0
ni_s1_w0_t2_k3 0
ni_s1_w0_t3_k0 0
ni_s1_w0_t3_k1 0
ni_s1_w0_t3_k2 0
ni_s1_w0_t3_k3 0
ni_s1_w0_t4_k0 0
ni_s1_w0_t4_k1 0
ni_s1_w0_t4_k2 0
ni_s1_w0_t4_k3 0
ni_s1_w0_t5_k0 0
ni_s1_w0_t5_k1 0
ni_s1_w0_t5_k2 0
ni_s1_w0_t5_k3 0
ni_s1_w0_t6_k0 0
ni_s1_w0_t6_k1 0
ni_s1_w0_t6_k2 0
ni_s1_w0_t6_k3 0
ni_s1_w0_t7_k0 0
ni_s1_w0_t7_k1 0
ni_s1_w0_t7_k2 0
ni_s1_w0_t7_k3 0
ni_s1_w0_t8_k0 0
ni_s1_w0_t8_k1 9
ni_s1_w0_t8_k2 28
ni_s1_w0_t8_k3 0
ni_s1_w0_t9_k0 0
ni_s1_w0_t9_k1 0
ni_s1_w0_t9_k2 0
ni_s1_w0_t9_k3 0
ni_s1_w0_t10_k0 0
ni_s1_w0_t10_k1 0
ni_s1_w0_t10_k2 0
ni_s1_w0_t10_k3 0
ni_s1_w1_t0_k0 0
ni_s1_w1_t0_k1 0
ni_s1_w1_t0_k2 51
ni_s1_w1_t0_k3 30
ni_s1_w1_t1_k0 0
ni_s1_w1_t1_k1 0
ni_s1_w1_t1_k2 0
ni_s1_w1_t1_k3 0
ni_s1_w1_t2_k0 0
ni_s1_w1_t2_k1 0
ni_s1_w1_t2_k2 0
ni_s1_w1_t2_k3 0
ni_s1_w1_t3_k0 0
ni_s1_w1_t3_k1 0
ni_s1_w1_t3_k2 0
ni_s1_w1_t3_k3 0
ni_s1_w1_t4_k0 0
ni_s1_w1_t4_k1 0
ni_s1_w1_t4_k2 0
ni_s1_w1_t4_k3 0
ni_s1_w1_t5_k0 0
ni_s1_w1_t5_k1 0
ni_s1_w1_t5_k2 0
ni_s1_w1_t5_k3 0
ni_s1_w1_t6_k0 0
ni_s1_w1_t6_k1 0
ni_s1_w1_t6_k2 0
ni_s1_w1_t6_k3 0
ni_s1_w1_t7_k0 0
ni_s1_w1_t7_k1 0
ni_s1_w1_t7_k2 0
ni_s1_w1_t7_k3 0
ni_s1_w1_t8_k0 0
ni_s1_w1_t8_k1 0
ni_s1_w1_t8_k2 37
ni_s1_w1_t8_k3 0
ni_s1_w1_t9_k0 0
ni_s1_w1_t9_k1 0
ni_s1_w1_t9_k2 0
ni_s1_w1_t9_k3 0
ni_s1_w1_t10_k0 0
ni_s1_w1_t10_k1 0
ni_s1_w1_t10_k2 0
ni_s1_w1_t10_k3 0
ni_s1_w2_t0_k0 24
ni_s1_w2_t0_k1 0
ni_s1_w2_t0_k2 12
ni_s1_w2_t0_k3 13
ni_s1_w2_t1_k0 0
ni_s1_w2_t1_k1 0
ni_s1_w2_t1_k2 0
ni_s1_w2_t1_k3 0
ni_s1_w2_t2_k0 0
ni_s1_w2_t2_k1 0
ni_s1_w2_t2_k2 0
ni_s1_w2_t2_k3 0
ni_s1_w2_t3_k0 0
ni_s1_w2_t3_k1 0
ni_s1_w2_t3_k2 0
ni_s1_w2_t3_k3 0
ni_s1_w2_t4_k0 0
ni_s1_w2_t4_k1 0
ni_s1_w2_t4_k2 0
ni_s1_w2_t4_k3 0
ni_s1_w2_t5_k0 0
ni_s1_w2_t5_k1 0
ni_s1_w2_t5_k2 0
ni_s1_w2_t5_k3 0
ni_s1_w2_t6_k0 0
ni_s1_w2_t6_k1 0
ni_s1_w2_t6_k2 0
ni_s1_w2_t6_k3 0
ni_s1_w2_t7_k0 0
ni_s1_w2_t7_k1 0
ni_s1_w2_t7_k2 0
ni_s1_w2_t7_k3 0
ni_s1_w2_t8_k0 0
ni_s1_w2_t8_k1 0
ni_s1_w2_t8_k2 0
ni_s1_w2_t8_k3 0
ni_s1_w2_t9_k0 0
ni_s1_w2_t9_k1 0
ni_s1_w2_t9_k2 0
ni_s1_w2_t9_k3 0
ni_s1_w2_t10_k0 0
ni_s1_w2_t10_k1 0
ni_s1_w2_t10_k2 0
ni_s1_w2_t10_k3 0
ni_s1_w3_t0_k0 41
ni_s1_w3_t0_k1 0
ni_s1_w3_t0_k2 0
ni_s1_w3_t0_k3 104
ni_s1_w3_t1_k0 0
ni_s1_w3_t1_k1 0
ni_s1_w3_t1_k2 0
ni_s1_w3_t1_k3 0
ni_s1_w3_t2_k0 0
ni_s1_w3_t2_k1 0
ni_s1_w3_t2_k2 0
ni_s1_w3_t2_k3 0
ni_s1_w3_t3_k0 0
ni_s1_w3_t3_k1 0
ni_s1_w3_t3_k2 0
ni_s1_w3_t3_k3 0
ni_s1_w3_t4_k0 0
ni_s1_w3_t4_k1 0
ni_s1_w3_t4_k2 0
ni_s1_w3_t4_k3 0
ni_s1_w3_t5_k0 0
ni_s1_w3_t5_k1 0
ni_s1_w3_t5_k2 0
ni_s1_w3_t5_k3 0
ni_s1_w3_t6_k0 0
ni_s1_w3_t6_k1 0
ni_s1_w3_t6_k2 0
ni_s1_w3_t6_k3 0
ni_s1_w3_t7_k0 0
ni_s1_w3_t7_k1 0
ni_s1_w3_t7_k2 0
ni_s1_w3_t7_k3 0
ni_s1_w3_t8_k0 37
ni_s1_w3_t8_k1 0
ni_s1_w3_t8_k2 0
ni_s1_w3_t8_k3 0
ni_s1_w3_t9_k0 0
ni_s1_w3_t9_k1 0
ni_s1_w3_t9_k2 0
ni_s1_w3_t9_k3 0
ni_s1_w3_t10_k0 0
ni_s1_w3_t10_k1 0
ni_s1_w3_t10_k2 0
ni_s1_w3_t10_k3 0
ni_s1_w4_t0_k0 0
ni_s1_w4_t0_k1 0
ni_s1_w4_t0_k2 0
ni_s1_w4_t0_k3 0
ni_s1_w4_t1_k0 0
ni_s1_w4_t1_k1 0
ni_s1_w4_t1_k2 0
ni_s1_w4_t1_k3 0
ni_s1_w4_t2_k0 0
ni_s1_w4_t2_k1 0
ni_s1_w4_t2_k2 0
ni_s1_w4_t2_k3 0
ni_s1_w4_t3_k0 0
ni_s1_w4_t3_k1 0
ni_s1_w4_t3_k2 0
ni_s1_w4_t3_k3 0
ni_s1_w4_t4_k0 0
ni_s1_w4_t4_k1 0
ni_s1_w4_t4_k2 0
ni_s1_w4_t4_k3 0
ni_s1_w4_t5_k0 0
ni_s1_w4_t5_k1 0
ni_s1_w4_t5_k2 0
ni_s1_w4_t5_k3 0
ni_s1_w4_t6_k0 0
ni_s1_w4_t6_k1 0
ni_s1_w4_t6_k2 0
ni_s1_w4_t6_k3 0
ni_s1_w4_t7_k0 0
ni_s1_w4_t7_k1 0
ni_s1_w4_t7_k2 0
ni_s1_w4_t7_k3 0
ni_s1_w4_t8_k0 13
ni_s1_w4_t8_k1 0
ni_s1_w4_t8_k2 0
ni_s1_w4_t8_k3 0
ni_s1_w4_t9_k0 0
ni_s1_w4_t9_k1 0
ni_s1_w4_t9_k2 0
ni_s1_w4_t9_k3 0
ni_s1_w4_t10_k0 0
ni_s1_w4_t10_k1 0
ni_s1_w4_t10_k2 0
ni_s1_w4_t10_k3 0
ni_s2_w0_t0_k0 0
ni_s2_w0_t0_k1 0
ni_s2_w0_t0_k2 0
ni_s2_w0_t0_k3 0
ni_s2_w0_t1_k0 0
ni_s2_w0_t1_k1 0
ni_s2_w0_t1_k2 0
ni_s2_w0_t1_k3 0
ni_s2_w0_t2_k0 0
ni_s2_w0_t2_k1 0
ni_s2_w0_t2_k2 0
ni_s2_w0_t2_k3 0
ni_s2_w0_t3_k0 0
ni_s2_w0_t3_k1 0
ni_s2_w0_t3_k2 0
ni_s2_w0_t3_k3 0
ni_s2_w0_t4_k0 0
ni_s2_w0_t4_k1 0
ni_s2_w0_t4_k2 0
ni_s2_w0_t4_k3 0
ni_s2_w0_t5_k0 0
ni_s2_w0_t5_k1 2
ni_s2_w0_t5_k2 134
ni_s2_w0_t5_k3 0
ni_s2_w0_t6_k0 0
ni_s2_w0_t6_k1 0
ni_s2_w0_t6_k2 0
ni_s2_w0_t6_k3 0
ni_s2_w0_t7_k0 0
ni_s2_w0_t7_k1 26
ni_s2_w0_t7_k2 1
ni_s2_w0_t7_k3 0
ni_s2_w0_t8_k0 0
ni_s2_w0_t8_k1 0
ni_s2_w0_t8_k2 0
ni_s2_w0_t8_k3 0
ni_s2_w0_t9_k0 0
ni_s2_w0_t9_k1 0
ni_s2_w0_t9_k2 0
ni_s2_w0_t9_k3 0
ni_s2_w0_t10_k0 0
ni_s2_w0_t10_k1 0
ni_s2_w0_t10_k2 0
ni_s2_w0_t10_k3 0
ni_s2_w1_t0_k0 0
ni_s2_w1_t0_k1 0
ni_s2_w1_t0_k2 0
ni_s2_w1_t0_k3 0
ni_s2_w1_t1_k0 0
ni_s2_w1_t1_k1 0
ni_s2_w1_t1_k2 0
ni_s2_w1_t1_k3 0
ni_s2_w1_t2_k0 0
ni_s2_w1_t2_k1 0
ni_s2_w1_t2_k2 0
ni_s2_w1_t2_k3 0
ni_s2_w1_t3_k0 0
ni_s2_w1_t3_k1 0
ni_s2_w1_t3_k2 0
ni_s2_w1_t3_k3 0
ni_s2_w1_t4_k0 0
ni_s2_w1_t4_k1 0
ni_s2_w1_t4_k2 0
ni_s2_w1_t4_k3 0
ni_s2_w1_t5_k0 0
ni_s2_w1_t5_k1 0
ni_s2_w1_t5_k2 88
ni_s2_w1_t5_k3 3
ni_s2_w1_t6_k0 0
ni_s2_w1_t6_k1 0
ni_s2_w1_t6_k2 0
ni_s2_w1_t6_k3 0
ni_s2_w1_t7_k0 0
ni_s2_w1_t7_k1 0
ni_s2_w1_t7_k2 0
ni_s2_w1_t7_k3 27
ni_s2_w1_t8_k0 0
ni_s2_w1_t8_k1 0
ni_s2_w1_t8_k2 0
ni_s2_w1_t8_k3 0
ni_s2_w1_t9_k0 0
ni_s2_w1_t9_k1 0
ni_s2_w1_t9_k2 0
ni_s2_w1_t9_k3 0
ni_s2_w1_t10_k0 0
ni_s2_w1_t10_k1 0
ni_s2_w1_t10_k2 0
ni_s2_w1_t10_k3 0
ni_s2_w2_t0_k0 0
ni_s2_w2_t0_k1 0
ni_s2_w2_t0_k2 0
ni_s2_w2_t0_k3 0
ni_s2_w2_t1_k0 0
ni_s2_w2_t1_k1 0
ni_s2_w2_t1_k2 0
ni_s2_w2_t1_k3 0
ni_s2_w2_t2_k0 0
ni_s2_w2_t2_k1 0
ni_s2_w2_t2_k2 0
ni_s2_w2_t2_k3 0
ni_s2_w2_t3_k0 0
ni_s2_w2_t3_k1 0
ni_s2_w2_t3_k2 0
ni_s2_w2_t3_k3 0
ni_s2_w2_t4_k0 0
ni_s2_w2_t4_k1 0
ni_s2_w2_t4_k2 0
ni_s2_w2_t4_k3 0
ni_s2_w2_t5_k0 24
ni_s2_w2_t5_k1 0
ni_s2_w2_t5_k2 12
ni_s2_w2_t5_k3 0
ni_s2_w2_t6_k0 0
ni_s2_w2_t6_k1 0
ni_s2_w2_t6_k2 0
ni_s2_w2_t6_k3 0
ni_s2_w2_t7_k0 0
ni_s2_w2_t7_k1 0
ni_s2_w2_t7_k2 0
ni_s2_w2_t7_k3 13
ni_s2_w2_t8_k0 0
ni_s2_w2_t8_k1 0
ni_s2_w2_t8_k2 0
ni_s2_w2_t8_k3 0
ni_s2_w2_t9_k0 0
ni_s2_w2_t9_k1 0
ni_s2_w2_t9_k2 0
ni_s2_w2_t9_k3 0
ni_s2_w2_t10_k0 0
ni_s2_w2_t10_k1 0
ni_s2_w2_t10_k2 0
ni_s2_w2_t10_k3 0
ni_s2_w3_t0_k0 0
ni_s2_w3_t0_k1 0
ni_s2_w3_t0_k2 0
ni_s2_w3_t0_k3 0
ni_s2_w3_t1_k0 0
ni_s2_w3_t1_k1 0
ni_s2_w3_t1_k2 0
ni_s2_w3_t1_k3 0
ni_s2_w3_t2_k0 0
ni_s2_w3_t2_k1 0
ni_s2_w3_t2_k2 0
ni_s2_w3_t2_k3 0
ni_s2_w3_t3_k0 0
ni_s2_w3_t3_k1 0
ni_s2_w3_t3_k2 0
ni_s2_w3_t3_k3 0
ni_s2_w3_t4_k0 0
ni_s2_w3_t4_k1 0
ni_s2_w3_t4_k2 0
ni_s2_w3_t4_k3 0
ni_s2_w3_t5_k0 78
ni_s2_w3_t5_k1 0
ni_s2_w3_t5_k2 0
ni_s2_w3_t5_k3 55
ni_s2_w3_t6_k0 0
ni_s2_w3_t6_k1 0
ni_s2_w3_t6_k2 0
ni_s2_w3_t6_k3 0
ni_s2_w3_t7_k0 0
ni_s2_w3_t7_k1 0
ni_s2_w3_t7_k2 0
ni_s2_w3_t7_k3 49
ni_s2_w3_t8_k0 0
ni_s2_w3_t8_k1 0
ni_s2_w3_t8_k2 0
ni_s2_w3_t8_k3 0
ni_s2_w3_t9_k0 0
ni_s2_w3_t9_k1 0
ni_s2_w3_t9_k2 0
ni_s2_w3_t9_k3 0
ni_s2_w3_t10_k0 0
ni_s2_w3_t10_k1 0
ni_s2_w3_t10_k2 0
ni_s2_w3_t10_k3 0
ni_s2_w4_t0_k0 0
ni_s2_w4_t0_k1 0
ni_s2_w4_t0_k2 0
ni_s2_w4_t0_k3 0
ni_s2_w4_t1_k0 0
ni_s2_w4_t1_k1 0
ni_s2_w4_t1_k2 0
ni_s2_w4_t1_k3 0
ni_s2_w4_t2_k0 0
ni_s2_w4_t2_k1 0
ni_s2_w4_t2_k2 0
ni_s2_w4_t2_k3 0
ni_s2_w4_t3_k0 0
ni_s2_w4_t3_k1 0
ni_s2_w4_t3_k2 0
ni_s2_w4_t3_k3 0
ni_s2_w4_t4_k0 0
ni_s2_w4_t4_k1 0
ni_s2_w4_t4_k2 0
ni_s2_w4_t4_k3 0
ni_s2_w4_t5_k0 0
ni_s2_w4_t5_k1 0
ni_s2_w4_t5_k2 0
ni_s2_w4_t5_k3 0
ni_s2_w4_t6_k0 0
ni_s2_w4_t6_k1 0
ni_s2_w4_t6_k2 0
ni_s2_w4_t6_k3 0
ni_s2_w4_t7_k0 13
ni_s2_w4_t7_k1 0
ni_s2_w4_t7_k2 0
ni_s2_w4_t7_k3 0
ni_s2_w4_t8_k0 0
ni_s2_w4_t8_k1 0
ni_s2_w4_t8_k2 0
ni_s2_w4_t8_k3 0
ni_s2_w4_t9_k0 0
ni_s2_w4_t9_k1 0
ni_s2_w4_t9_k2 0
ni_s2_w4_t9_k3 0
ni_s2_w4_t10_k0 0
ni_s2_w4_t10_k1 0
ni_s2_w4_t10_k2 0
ni_s2_w4_t10_k3 0
o_w0_r0 4.1333333333333329e+01
o_w0_r1 0
o_w0_r2 0
o_w0_r3 0
o_w0_r4 0
o_w0_r5 1.7666666666666664e+01
o_w0_r6 0
o_w0_r7 0
o_w0_r8 0
o_w0_r9 0
o_w1_r0 6.7666666666666657e+01
o_w1_r1 0
o_w1_r2 0
o_w1_r3 0
o_w1_r4 0
o_w1_r5 0
o_w1_r6 0
o_w1_r7 0
o_w1_r8 0
o_w1_r9 0
o_w2_r0 8.3333333333333329e+01
o_w2_r1 0
o_w2_r2 0
o_w2_r3 0
o_w2_r4 0
o_w2_r5 0
o_w2_r6 0
o_w2_r7 0
o_w2_r8 0
o_w2_r9 0
o_w3_r0 131
o_w3_r1 0
o_w3_r2 0
o_w3_r3 0
o_w3_r4 0
o_w3_r5 5.3333333333333330e+00
o_w3_r6 0
o_w3_r7 7.3333333333333330e+00
o_w3_r8 0
o_w3_r9 0
o_w4_r0 131
o_w4_r1 0
o_w4_r2 0
o_w4_r3 0
o_w4_r4 0
o_w4_r5 5.3333333333333330e+00
o_w4_r6 0
o_w4_r7 2.6666666666666665e+00
o_w4_r8 0
o_w4_r9 0
O_0_w0_r0 0
O_0_w0_r1 0
O_0_w0_r2 0
O_0_w0_r3 0
O_0_w0_r4 0
O_0_w0_r5 34
O_0_w0_r6 0
O_0_w0_r7 0
O_0_w0_r8 0
O_0_w0_r9 0
O_0_w1_r0 0
O_0_w1_r1 0
O_0_w1_r2 0
O_0_w1_r3 0
O_0_w1_r4 0
O_0_w1_r5 0
O_0_w1_r6 0
O_0_w1_r7 0
O_0_w1_r8 0
O_0_w1_r9 0
O_0_w2_r0 0
O_0_w2_r1 0
O_0_w2_r2 0
O_0_w2_r3 0
O_0_w2_r4 0
O_0_w2_r5 0
O_0_w2_r6 0
O_0_w2_r7 0
O_0_w2_r8 0
O_0_w2_r9 0
O_0_w3_r0 0
O_0_w3_r1 0
O_0_w3_r2 0
O_0_w3_r3 0
O_0_w3_r4 0
O_0_w3_r5 0
O_0_w3_r6 0
O_0_w3_r7 0
O_0_w3_r8 0
O_0_w3_r9 0
O_0_w4_r0 0
O_0_w4_r1 0
O_0_w4_r2 0
O_0_w4_r3 0
O_0_w4_r4 0
O_0_w4_r5 0
O_0_w4_r6 0
O_0_w4_r7 0
O_0_w4_r8 0
O_0_w4_r9 0
O_1_w0_r0 124
O_1_w0_r1 0
O_1_w0_r2 0
O_1_w0_r3 0
O_1_w0_r4 0
O_1_w0_r5 0
O_1_w0_r6 0
O_1_w0_r7 0
O_1_w0_r8 0
O_1_w0_r9 0
O_1_w1_r0 203
O_1_w1_r1 0
O_1_w1_r2 0
O_1_w1_r3 0
O_1_w1_r4 0
O_1_w1_r5 0
O_1_w1_r6 0
O_1_w1_r7 0
O_1_w1_r8 0
O_1_w1_r9 0
O_1_w2_r0 250
O_1_w2_r1 0
O_1_w2_r2 0
O_1_w2_r3 0
O_1_w2_r4 0
O_1_w2_r5 0
O_1_w2_r6 0
O_1_w2_r7 0
O_1_w2_r8 0
O_1_w2_r9 0
O_1_w3_r0 393
O_1_w3_r1 0
O_1_w3_r2 0
O_1_w3_r3 0
O_1_w3_r4 0
O_1_w3_r5 0
O_1_w3_r6 0
O_1_w3_r7 0
O_1_w3_r8 0
O_1_w3_r9 0
O_1_w4_r0 393
O_1_w4_r1 0
O_1_w4_r2 0
O_1_w4_r3 0
O_1_w4_r4 0
O_1_w4_r5 0
O_1_w4_r6 0
O_1_w4_r7 0
O_1_w4_r8 0
O_1_w4_r9 0
O_2_w0_r0 0
O_2_w0_r1 0
O_2_w0_r2 0
O_2_w0_r3 0
O_2_w0_r4 0
O_2_w0_r5 19
O_2_w0_r6 0
O_2_w0_r7 0
O_2_w0_r8 0
O_2_w0_r9 0
O_2_w1_r0 0
O_2_w1_r1 0
O_2_w1_r2 0
O_2_w1_r3 0
O_2_w1_r4 0
O_2_w1_r5 0
O_2_w1_r6 0
O_2_w1_r7 0
O_2_w1_r8 0
O_2_w1_r9 0
O_2_w2_r0 0
O_2_w2_r1 0
O_2_w2_r2 0
O_2_w2_r3 0
O_2_w2_r4 0
O_2_w2_r5 0
O_2_w2_r6 0
O_2_w2_r7 0
O_2_w2_r8 0
O_2_w2_r9 0
O_2_w3_r0 0
O_2_w3_r1 0
O_2_w3_r2 0
O_2_w3_r3 0
O_2_w3_r4 0
O_2_w3_r5 16
O_2_w3_r6 0
O_2_w3_r7 22
O_2_w3_r8 0
O_2_w3_r9 0
O_2_w4_r0 0
O_2_w4_r1 0
O_2_w4_r2 0
O_2_w4_r3 0
O_2_w4_r4 0
O_2_w4_r5 16
O_2_w4_r6 0
O_2_w4_r7 8
O_2_w4_r8 0
O_2_w4_r9 0
y_w0_r0_s0 0
y_w0_r1_s0 0
y_w0_r2_s0 0
y_w0_r3_s0 0
y_w0_r4_s0 1
y_w0_r5_s0 3
y_w0_r6_s0 0
y_w0_r7_s0 0
y_w0_r8_s0 0
y_w0_r9_s0 0
y_w1_r0_s0 0
y_w1_r1_s0 0
y_w1_r2_s0 0
y_w1_r3_s0 0
y_w1_r4_s0 0
y_w1_r5_s0 5
y_w1_r6_s0 0
y_w1_r7_s0 0
y_w1_r8_s0 0
y_w1_r9_s0 0
y_w2_r0_s0 0
y_w2_r1_s0 0
y_w2_r2_s0 0
y_w2_r3_s0 0
y_w2_r4_s0 1
y_w2_r5_s0 1
y_w2_r6_s0 0
y_w2_r7_s0 0
y_w2_r8_s0 0
y_w2_r9_s0 0
y_w3_r0_s0 0
y_w3_r1_s0 0
y_w3_r2_s0 0
y_w3_r3_s0 0
y_w3_r4_s0 0
y_w3_r5_s0 5
y_w3_r6_s0 0
y_w3_r7_s0 0
y_w3_r8_s0 0
y_w3_r9_s0 0
y_w4_r0_s0 0
y_w4_r1_s0 0
y_w4_r2_s0 0
y_w4_r3_s0 0
y_w4_r4_s0 0
y_w4_r5_s0 2
y_w4_r6_s0 0
y_w4_r7_s0 0
y_w4_r8_s0 0
y_w4_r9_s0 0
y_w0_r0_s1 1
y_w0_r1_s1 0
y_w0_r2_s1 0
y_w0_r3_s1 0
y_w0_r4_s1 0
y_w0_r5_s1 0
y_w0_r6_s1 0
y_w0_r7_s1 0
y_w0_r8_s1 1
y_w0_r9_s1 0
y_w1_r0_s1 1
y_w1_r1_s1 0
y_w1_r2_s1 0
y_w1_r3_s1 0
y_w1_r4_s1 0
y_w1_r5_s1 0
y_w1_r6_s1 0
y_w1_r7_s1 0
y_w1_r8_s1 1
y_w1_r9_s1 0
y_w2_r0_s1 1
y_w2_r1_s1 0
y_w2_r2_s1 0
y_w2_r3_s1 0
y_w2_r4_s1 0
y_w2_r5_s1 0
y_w2_r6_s1 0
y_w2_r7_s1 0
y_w2_r8_s1 0
y_w2_r9_s1 0
y_w3_r0_s1 1
y_w3_r1_s1 0
y_w3_r2_s1 0
y_w3_r3_s1 0
y_w3_r4_s1 0
y_w3_r5_s1 0
y_w3_r6_s1 0
y_w3_r7_s1 0
y_w3_r8_s1 1
y_w3_r9_s1 0
y_w4_r0_s1 0
y_w4_r1_s1 0
y_w4_r2_s1 0
y_w4_r3_s1 0
y_w4_r4_s1 0
y_w4_r5_s1 0
y_w4_r6_s1 0
y_w4_r7_s1 0
y_w4_r8_s1 1
y_w4_r9_s1 0
y_w0_r0_s2 0
y_w0_r1_s2 0
y_w0_r2_s2 0
y_w0_r3_s2 0
y_w0_r4_s2 0
y_w0_r5_s2 3
y_w0_r6_s2 0
y_w0_r7_s2 1
y_w0_r8_s2 0
y_w0_r9_s2 0
y_w1_r0_s2 0
y_w1_r1_s2 0
y_w1_r2_s2 0
y_w1_r3_s2 0
y_w1_r4_s2 0
y_w1_r5_s2 3
y_w1_r6_s2 0
y_w1_r7_s2 1
y_w1_r8_s2 0
y_w1_r9_s2 0
y_w2_r0_s2 0
y_w2_r1_s2 0
y_w2_r2_s2 0
y_w2_r3_s2 0
y_w2_r4_s2 0
y_w2_r5_s2 1
y_w2_r6_s2 0
y_w2_r7_s2 1
y_w2_r8_s2 0
y_w2_r9_s2 0
y_w3_r0_s2 0
y_w3_r1_s2 0
y_w3_r2_s2 0
y_w3_r3_s2 0
y_w3_r4_s2 0
y_w3_r5_s2 3
y_w3_r6_s2 0
y_w3_r7_s2 1
y_w3_r8_s2 0
y_w3_r9_s2 0
y_w4_r0_s2 0
y_w4_r1_s2 0
y_w4_r2_s2 0
y_w4_r3_s2 0
y_w4_r4_s2 0
y_w4_r5_s2 0
y_w4_r6_s2 0
y_w4_r7_s2 1
y_w4_r8_s2 0
y_w4_r9_s2 0
p_w0 5
s_w0 5
p_w1 5
s_w1 0
p_w2 3
s_w2 3
p_w3 5
s_w3 2
p_w4 2
s_w4 0
